n1 = 5;
adjacent1 = [| 0, 0, 0, 0, 1
| 0, 0, 0, 0, 0
| 0, 0, 0, 1, 0
| 0, 0, 1, 0, 0
| 1, 0, 0, 0, 0 |];
n2 = 5;
adjacent2 = [| 0, 0, 0, 0, 1
| 0, 0, 1, 0, 0
| 0, 1, 0, 0, 0
| 0, 0, 0, 0, 0
| 1, 0, 0, 0, 0 |];
vertexDeletionCost = [45, 45, 45, 45, 45];
vertexInsertionCost = [45, 45, 45, 45, 45];
vertexSubstitutionCost = [| 7.3824115301167, 90, 25.495097567963924, 90, 90
| 90, 90, 90, 13.0862523283024, 90
| 90, 6.96419413859206, 90, 90, 41.50301193889427
| 44.02839992550263, 90, 13.341664064126334, 90, 90
| 90, 29.017236257093817, 90, 90, 12.206555615733702 |];
edgeDeletionCost = [| 0.0, 0.0, 0.0, 0.0, 15.0
| 0.0, 0.0, 0.0, 0.0, 0.0
| 0.0, 0.0, 0.0, 15.0, 0.0
| 0.0, 0.0, 15.0, 0.0, 0.0
| 15.0, 0.0, 0.0, 0.0, 0.0 |];
edgeInsertionCost = [| 0.0, 0.0, 0.0, 0.0, 15.0
| 0.0, 0.0, 15.0, 0.0, 0.0
| 0.0, 15.0, 0.0, 0.0, 0.0
| 0.0, 0.0, 0.0, 0.0, 0.0
| 15.0, 0.0, 0.0, 0.0, 0.0 |];
edgeSubstitutionCost = array4d(1..n1, 1..n1, 1..n2, 1..n2, [0, 0, 0, 0, 15.0, 0, 0, 15.0, 0, 0, 0, 15.0, 0, 0, 0, 0, 0, 0, 0, 0, 15.0, 0, 0, 0, 0, 0, 0, 0, 0, 15.0, 0, 0, 15.0, 0, 0, 0, 15.0, 0, 0, 0, 0, 0, 0, 0, 0, 15.0, 0, 0, 0, 0, 0, 0, 0, 0, 15.0, 0, 0, 15.0, 0, 0, 0, 15.0, 0, 0, 0, 0, 0, 0, 0, 0, 15.0, 0, 0, 0, 0, 0, 0, 0, 0, 15.0, 0, 0, 15.0, 0, 0, 0, 15.0, 0, 0, 0, 0, 0, 0, 0, 0, 15.0, 0, 0, 0, 0, 15.0, 15.0, 15.0, 15.0, 0.0, 15.0, 15.0, 0.0, 15.0, 15.0, 15.0, 0.0, 15.0, 15.0, 15.0, 15.0, 15.0, 15.0, 15.0, 15.0, 0.0, 15.0, 15.0, 15.0, 15.0, 0, 0, 0, 0, 15.0, 0, 0, 15.0, 0, 0, 0, 15.0, 0, 0, 0, 0, 0, 0, 0, 0, 15.0, 0, 0, 0, 0, 0, 0, 0, 0, 15.0, 0, 0, 15.0, 0, 0, 0, 15.0, 0, 0, 0, 0, 0, 0, 0, 0, 15.0, 0, 0, 0, 0, 0, 0, 0, 0, 15.0, 0, 0, 15.0, 0, 0, 0, 15.0, 0, 0, 0, 0, 0, 0, 0, 0, 15.0, 0, 0, 0, 0, 0, 0, 0, 0, 15.0, 0, 0, 15.0, 0, 0, 0, 15.0, 0, 0, 0, 0, 0, 0, 0, 0, 15.0, 0, 0, 0, 0, 0, 0, 0, 0, 15.0, 0, 0, 15.0, 0, 0, 0, 15.0, 0, 0, 0, 0, 0, 0, 0, 0, 15.0, 0, 0, 0, 0, 0, 0, 0, 0, 15.0, 0, 0, 15.0, 0, 0, 0, 15.0, 0, 0, 0, 0, 0, 0, 0, 0, 15.0, 0, 0, 0, 0, 0, 0, 0, 0, 15.0, 0, 0, 15.0, 0, 0, 0, 15.0, 0, 0, 0, 0, 0, 0, 0, 0, 15.0, 0, 0, 0, 0, 0, 0, 0, 0, 15.0, 0, 0, 15.0, 0, 0, 0, 15.0, 0, 0, 0, 0, 0, 0, 0, 0, 15.0, 0, 0, 0, 0, 15.0, 15.0, 15.0, 15.0, 0.0, 15.0, 15.0, 0.0, 15.0, 15.0, 15.0, 0.0, 15.0, 15.0, 15.0, 15.0, 15.0, 15.0, 15.0, 15.0, 0.0, 15.0, 15.0, 15.0, 15.0, 0, 0, 0, 0, 15.0, 0, 0, 15.0, 0, 0, 0, 15.0, 0, 0, 0, 0, 0, 0, 0, 0, 15.0, 0, 0, 0, 0, 0, 0, 0, 0, 15.0, 0, 0, 15.0, 0, 0, 0, 15.0, 0, 0, 0, 0, 0, 0, 0, 0, 15.0, 0, 0, 0, 0, 0, 0, 0, 0, 15.0, 0, 0, 15.0, 0, 0, 0, 15.0, 0, 0, 0, 0, 0, 0, 0, 0, 15.0, 0, 0, 0, 0, 15.0, 15.0, 15.0, 15.0, 0.0, 15.0, 15.0, 0.0, 15.0, 15.0, 15.0, 0.0, 15.0, 15.0, 15.0, 15.0, 15.0, 15.0, 15.0, 15.0, 0.0, 15.0, 15.0, 15.0, 15.0, 0, 0, 0, 0, 15.0, 0, 0, 15.0, 0, 0, 0, 15.0, 0, 0, 0, 0, 0, 0, 0, 0, 15.0, 0, 0, 0, 0, 0, 0, 0, 0, 15.0, 0, 0, 15.0, 0, 0, 0, 15.0, 0, 0, 0, 0, 0, 0, 0, 0, 15.0, 0, 0, 0, 0, 15.0, 15.0, 15.0, 15.0, 0.0, 15.0, 15.0, 0.0, 15.0, 15.0, 15.0, 0.0, 15.0, 15.0, 15.0, 15.0, 15.0, 15.0, 15.0, 15.0, 0.0, 15.0, 15.0, 15.0, 15.0, 0, 0, 0, 0, 15.0, 0, 0, 15.0, 0, 0, 0, 15.0, 0, 0, 0, 0, 0, 0, 0, 0, 15.0, 0, 0, 0, 0, 0, 0, 0, 0, 15.0, 0, 0, 15.0, 0, 0, 0, 15.0, 0, 0, 0, 0, 0, 0, 0, 0, 15.0, 0, 0, 0, 0, 0, 0, 0, 0, 15.0, 0, 0, 15.0, 0, 0, 0, 15.0, 0, 0, 0, 0, 0, 0, 0, 0, 15.0, 0, 0, 0, 0, 0, 0, 0, 0, 15.0, 0, 0, 15.0, 0, 0, 0, 15.0, 0, 0, 0, 0, 0, 0, 0, 0, 15.0, 0, 0, 0, 0]);
